(set-info :smt-lib-version 2.6)
(set-logic QF_ALIA)
(set-info :notes "Adapted for Array Sum evaluation.
Base file: piVC_13f61c.smt2")
(set-info :source |pvc|)
(set-info :category "industrial")
(declare-fun length5 () Int)
(declare-fun length4 () Int)
(declare-fun length3 () Int)
(declare-fun length2 () Int)
(declare-fun length1 () Int)
(declare-fun e () Int)
(declare-fun a2_0 () (Array Int Int))
(declare-fun a1_0 () (Array Int Int))
(declare-fun buf () (Array Int Int))
(declare-fun k () Int)
(declare-fun a2 () (Array Int Int))
(declare-fun i2 () Int)
(declare-fun a1 () (Array Int Int))
(declare-fun i1 () Int)
(declare-fun ix_1 () Int)
(declare-fun ix_2 () Int)
(declare-fun ix_3 () Int)
(assert (let ((?v_6 (select a1_0 ix_3)) (?v_5 (select a1_0 ix_2)) (?v_11 (select a1_0 ix_1)) (?v_14 (select a1_0 i2)) (?v_17 (select a1_0 i1)) (?v_34 (select a2_0 ix_3)) (?v_33 (select a2_0 ix_2)) (?v_38 (select a2_0 ix_1)) (?v_41 (select a2_0 i2)) (?v_44 (select a2_0 i1)) (?v_66 (select a1 i1)) (?v_68 (select a2 i2)) (?v_90 (select a1 ix_3)) (?v_92 (select a1 ix_2)) (?v_93 (select a1 ix_1)) (?v_94 (select a1 i2)) (?v_95 (select a2 ix_3)) (?v_96 (select a2 ix_2)) (?v_97 (select a2 ix_1)) (?v_99 (select a2 i1)) (?v_89 (select buf ix_3)) (?v_81 (select buf ix_2)) (?v_83 (select buf ix_1)) (?v_85 (select buf i2)) (?v_87 (select buf i1)) (?v_98 (< 0 1)) (?v_4 (* (- 1) ix_3))) (let ((?v_0 (< 0 ?v_4)) (?v_3 (* (- 1) ix_2))) (let ((?v_26 (< 0 (+ ?v_3 ix_3))) (?v_1 (* (- 1) length1))) (let ((?v_20 (< 0 (+ ?v_1 1 ix_2))) (?v_2 (* (- 1) ?v_6)) (?v_8 (* (- 1) ix_1))) (let ((?v_27 (< 0 (+ ?v_8 ix_3))) (?v_9 (< 0 (+ ?v_1 1 ix_1))) (?v_12 (* (- 1) i2))) (let ((?v_30 (< 0 (+ ?v_12 ix_3))) (?v_13 (< 0 (+ ?v_1 1 i2))) (?v_15 (* (- 1) i1))) (let ((?v_31 (< 0 (+ ?v_15 ix_3))) (?v_16 (< 0 (+ ?v_1 1 i1))) (?v_7 (< 0 ?v_3)) (?v_32 (< 0 (+ ?v_4 ix_2))) (?v_18 (< 0 (+ ?v_1 1 ix_3))) (?v_10 (* (- 1) ?v_5)) (?v_35 (< 0 (+ ?v_8 ix_2))) (?v_39 (< 0 (+ ?v_12 ix_2))) (?v_42 (< 0 (+ ?v_15 ix_2))) (?v_19 (< 0 ?v_8)) (?v_45 (< 0 (+ ?v_4 ix_1))) (?v_21 (* (- 1) ?v_11)) (?v_47 (< 0 (+ ?v_3 ix_1))) (?v_50 (< 0 (+ ?v_12 ix_1))) (?v_51 (< 0 (+ ?v_15 ix_1))) (?v_22 (< 0 ?v_12)) (?v_52 (< 0 (+ ?v_4 i2))) (?v_23 (* (- 1) ?v_14)) (?v_53 (< 0 (+ ?v_3 i2))) (?v_55 (< 0 (+ ?v_8 i2))) (?v_56 (< 0 (+ ?v_15 i2))) (?v_24 (< 0 ?v_15)) (?v_57 (< 0 (+ ?v_4 i1))) (?v_25 (* (- 1) ?v_17)) (?v_58 (< 0 (+ ?v_3 i1))) (?v_60 (< 0 (+ ?v_8 i1))) (?v_61 (< 0 (+ ?v_12 i1))) (?v_28 (* (- 1) length2))) (let ((?v_48 (< 0 (+ ?v_28 1 ix_2))) (?v_29 (* (- 1) ?v_34)) (?v_36 (< 0 (+ ?v_28 1 ix_1))) (?v_40 (< 0 (+ ?v_28 1 i2))) (?v_43 (< 0 (+ ?v_28 1 i1))) (?v_46 (< 0 (+ ?v_28 1 ix_3))) (?v_37 (* (- 1) ?v_33)) (?v_49 (* (- 1) ?v_38)) (?v_54 (* (- 1) ?v_41)) (?v_59 (* (- 1) ?v_44))) (let ((?v_103 (and (and (and (and (and (and (and (and (and (and (and (and (and (and (and (and (and (and (and (and (and (or (or ?v_0 (or ?v_26 ?v_20)) (<= 0 (+ ?v_2 ?v_5))) (or (or ?v_0 (or ?v_27 ?v_9)) (<= 0 (+ ?v_2 ?v_11)))) (or (or ?v_0 (or ?v_30 ?v_13)) (<= 0 (+ ?v_2 ?v_14)))) (or (or ?v_0 (or ?v_31 ?v_16)) (<= 0 (+ ?v_2 ?v_17)))) (or (or ?v_7 (or ?v_32 ?v_18)) (<= 0 (+ ?v_10 ?v_6)))) (or (or ?v_7 (or ?v_35 ?v_9)) (<= 0 (+ ?v_10 ?v_11)))) (or (or ?v_7 (or ?v_39 ?v_13)) (<= 0 (+ ?v_10 ?v_14)))) (or (or ?v_7 (or ?v_42 ?v_16)) (<= 0 (+ ?v_10 ?v_17)))) (or (or ?v_19 (or ?v_45 ?v_18)) (<= 0 (+ ?v_21 ?v_6)))) (or (or ?v_19 (or ?v_47 ?v_20)) (<= 0 (+ ?v_21 ?v_5)))) (or (or ?v_19 (or ?v_50 ?v_13)) (<= 0 (+ ?v_21 ?v_14)))) (or (or ?v_19 (or ?v_51 ?v_16)) (<= 0 (+ ?v_21 ?v_17)))) (or (or ?v_22 (or ?v_52 ?v_18)) (<= 0 (+ ?v_23 ?v_6)))) (or (or ?v_22 (or ?v_53 ?v_20)) (<= 0 (+ ?v_23 ?v_5)))) (or (or ?v_22 (or ?v_55 ?v_9)) (<= 0 (+ ?v_23 ?v_11)))) (or (or ?v_22 (or ?v_56 ?v_16)) (<= 0 (+ ?v_23 ?v_17)))) (or (or ?v_24 (or ?v_57 ?v_18)) (<= 0 (+ ?v_25 ?v_6)))) (or (or ?v_24 (or ?v_58 ?v_20)) (<= 0 (+ ?v_25 ?v_5)))) (or (or ?v_24 (or ?v_60 ?v_9)) (<= 0 (+ ?v_25 ?v_11)))) (or (or ?v_24 (or ?v_61 ?v_13)) (<= 0 (+ ?v_25 ?v_14)))) (and (and (and (and (and (and (and (and (and (and (and (and (and (and (and (and (and (and (and (or (or ?v_0 (or ?v_26 ?v_48)) (<= 0 (+ ?v_29 ?v_33))) (or (or ?v_0 (or ?v_27 ?v_36)) (<= 0 (+ ?v_29 ?v_38)))) (or (or ?v_0 (or ?v_30 ?v_40)) (<= 0 (+ ?v_29 ?v_41)))) (or (or ?v_0 (or ?v_31 ?v_43)) (<= 0 (+ ?v_29 ?v_44)))) (or (or ?v_7 (or ?v_32 ?v_46)) (<= 0 (+ ?v_37 ?v_34)))) (or (or ?v_7 (or ?v_35 ?v_36)) (<= 0 (+ ?v_37 ?v_38)))) (or (or ?v_7 (or ?v_39 ?v_40)) (<= 0 (+ ?v_37 ?v_41)))) (or (or ?v_7 (or ?v_42 ?v_43)) (<= 0 (+ ?v_37 ?v_44)))) (or (or ?v_19 (or ?v_45 ?v_46)) (<= 0 (+ ?v_49 ?v_34)))) (or (or ?v_19 (or ?v_47 ?v_48)) (<= 0 (+ ?v_49 ?v_33)))) (or (or ?v_19 (or ?v_50 ?v_40)) (<= 0 (+ ?v_49 ?v_41)))) (or (or ?v_19 (or ?v_51 ?v_43)) (<= 0 (+ ?v_49 ?v_44)))) (or (or ?v_22 (or ?v_52 ?v_46)) (<= 0 (+ ?v_54 ?v_34)))) (or (or ?v_22 (or ?v_53 ?v_48)) (<= 0 (+ ?v_54 ?v_33)))) (or (or ?v_22 (or ?v_55 ?v_36)) (<= 0 (+ ?v_54 ?v_38)))) (or (or ?v_22 (or ?v_56 ?v_43)) (<= 0 (+ ?v_54 ?v_44)))) (or (or ?v_24 (or ?v_57 ?v_46)) (<= 0 (+ ?v_59 ?v_34)))) (or (or ?v_24 (or ?v_58 ?v_48)) (<= 0 (+ ?v_59 ?v_33)))) (or (or ?v_24 (or ?v_60 ?v_36)) (<= 0 (+ ?v_59 ?v_38)))) (or (or ?v_24 (or ?v_61 ?v_40)) (<= 0 (+ ?v_59 ?v_41))))) (and (<= 0 length2) (<= 0 length1)))) (?v_63 (+ ?v_12 length3)) (?v_62 (+ ?v_15 length4)) (?v_69 (* (- 1) k))) (let ((?v_64 (+ ?v_69 length5)) (?v_65 (* (- 1) length4)) (?v_67 (* (- 1) length3)) (?v_88 (< 0 (+ ?v_69 1 ix_3)))) (let ((?v_70 (or ?v_0 ?v_88)) (?v_71 (* (- 1) ?v_89)) (?v_80 (< 0 (+ ?v_69 1 ix_2)))) (let ((?v_72 (or ?v_7 ?v_80)) (?v_73 (* (- 1) ?v_81)) (?v_82 (< 0 (+ ?v_69 1 ix_1)))) (let ((?v_74 (or ?v_19 ?v_82)) (?v_75 (* (- 1) ?v_83)) (?v_84 (< 0 (+ ?v_69 1 i2)))) (let ((?v_76 (or ?v_22 ?v_84)) (?v_77 (* (- 1) ?v_85)) (?v_86 (< 0 (+ ?v_69 1 i1)))) (let ((?v_78 (or ?v_24 ?v_86)) (?v_79 (* (- 1) ?v_87)) (?v_91 (* (- 1) e))) (let ((?v_101 (= 0 (+ ?v_91 ?v_92))) (?v_102 (= 0 (+ ?v_91 ?v_97))) (?v_100 (= 0 (+ ?v_91 ?v_89)))) (and (and ?v_103 (and (<= 0 (+ (* (- 1) ?v_66) ?v_68)) (and (< 0 ?v_63) (and (< 0 ?v_62) (and (< 0 ?v_64) (and (and (<= 0 i1) (and (<= 0 ?v_62) (and (<= 0 i2) (and (<= 0 ?v_63) (and (<= 0 k) (and (<= 0 ?v_64) (and (= 0 (+ ?v_15 ?v_12 k)) (and (= 0 (+ ?v_65 ?v_67 length5)) (and (= 0 (+ ?v_1 length4)) (and (= 0 (+ ?v_28 length3)) (and (and (and (and (and (or (or ?v_0 (< 0 (+ ?v_65 1 ix_3))) (= 0 (+ ?v_2 ?v_90))) (or (or ?v_7 (< 0 (+ ?v_65 1 ix_2))) (= 0 (+ ?v_10 ?v_92)))) (or (or ?v_19 (< 0 (+ ?v_65 1 ix_1))) (= 0 (+ ?v_21 ?v_93)))) (or (or ?v_22 (< 0 (+ ?v_65 1 i2))) (= 0 (+ ?v_23 ?v_94)))) (or (or ?v_24 (< 0 (+ ?v_65 1 i1))) (= 0 (+ ?v_25 ?v_66)))) (and (and (and (and (and (or (or ?v_0 (< 0 (+ ?v_67 1 ix_3))) (= 0 (+ ?v_29 ?v_95))) (or (or ?v_7 (< 0 (+ ?v_67 1 ix_2))) (= 0 (+ ?v_37 ?v_96)))) (or (or ?v_19 (< 0 (+ ?v_67 1 ix_1))) (= 0 (+ ?v_49 ?v_97)))) (or (or ?v_22 (< 0 (+ ?v_67 1 i2))) (= 0 (+ ?v_54 ?v_68)))) (or (or ?v_24 (< 0 (+ ?v_67 1 i1))) (= 0 (+ ?v_59 ?v_99)))) (and (or (= 0 (+ ?v_65 i1)) (and (and (and (and (or ?v_70 (<= 0 (+ ?v_71 ?v_66))) (or ?v_72 (<= 0 (+ ?v_73 ?v_66)))) (or ?v_74 (<= 0 (+ ?v_75 ?v_66)))) (or ?v_76 (<= 0 (+ ?v_77 ?v_66)))) (or ?v_78 (<= 0 (+ ?v_79 ?v_66))))) (and (or (= 0 (+ ?v_67 i2)) (and (and (and (and (or ?v_70 (<= 0 (+ ?v_71 ?v_68))) (or ?v_72 (<= 0 (+ ?v_73 ?v_68)))) (or ?v_74 (<= 0 (+ ?v_75 ?v_68)))) (or ?v_76 (<= 0 (+ ?v_77 ?v_68)))) (or ?v_78 (<= 0 (+ ?v_79 ?v_68))))) (and (and (and (and (and (and (and (and (and (and (and (and (and (and (and (and (and (and (and (and (or (or ?v_0 (or ?v_26 ?v_80)) (<= 0 (+ ?v_71 ?v_81))) (or (or ?v_0 (or ?v_27 ?v_82)) (<= 0 (+ ?v_71 ?v_83)))) (or (or ?v_0 (or ?v_30 ?v_84)) (<= 0 (+ ?v_71 ?v_85)))) (or (or ?v_0 (or ?v_31 ?v_86)) (<= 0 (+ ?v_71 ?v_87)))) (or (or ?v_7 (or ?v_32 ?v_88)) (<= 0 (+ ?v_73 ?v_89)))) (or (or ?v_7 (or ?v_35 ?v_82)) (<= 0 (+ ?v_73 ?v_83)))) (or (or ?v_7 (or ?v_39 ?v_84)) (<= 0 (+ ?v_73 ?v_85)))) (or (or ?v_7 (or ?v_42 ?v_86)) (<= 0 (+ ?v_73 ?v_87)))) (or (or ?v_19 (or ?v_45 ?v_88)) (<= 0 (+ ?v_75 ?v_89)))) (or (or ?v_19 (or ?v_47 ?v_80)) (<= 0 (+ ?v_75 ?v_81)))) (or (or ?v_19 (or ?v_50 ?v_84)) (<= 0 (+ ?v_75 ?v_85)))) (or (or ?v_19 (or ?v_51 ?v_86)) (<= 0 (+ ?v_75 ?v_87)))) (or (or ?v_22 (or ?v_52 ?v_88)) (<= 0 (+ ?v_77 ?v_89)))) (or (or ?v_22 (or ?v_53 ?v_80)) (<= 0 (+ ?v_77 ?v_81)))) (or (or ?v_22 (or ?v_55 ?v_82)) (<= 0 (+ ?v_77 ?v_83)))) (or (or ?v_22 (or ?v_56 ?v_86)) (<= 0 (+ ?v_77 ?v_87)))) (or (or ?v_24 (or ?v_57 ?v_88)) (<= 0 (+ ?v_79 ?v_89)))) (or (or ?v_24 (or ?v_58 ?v_80)) (<= 0 (+ ?v_79 ?v_81)))) (or (or ?v_24 (or ?v_60 ?v_82)) (<= 0 (+ ?v_79 ?v_83)))) (or (or ?v_24 (or ?v_61 ?v_84)) (<= 0 (+ ?v_79 ?v_85)))) (and (or (and (and (and (and (and (or (or ?v_0 (< 0 (+ ?v_15 1 ix_3))) (not (= 0 (+ ?v_91 ?v_90)))) (or (or ?v_7 (< 0 (+ ?v_15 1 ix_2))) (not ?v_101))) (or (or ?v_19 (< 0 (+ ?v_15 1 ix_1))) (not (= 0 (+ ?v_91 ?v_93))))) (or (or ?v_22 (< 0 (+ ?v_15 1 i2))) (not (= 0 (+ ?v_91 ?v_94))))) (or (or ?v_24 ?v_98) (not (= 0 (+ ?v_91 ?v_66))))) (and (and (and (and (or (or ?v_0 (< 0 (+ ?v_12 1 ix_3))) (not (= 0 (+ ?v_91 ?v_95)))) (or (or ?v_7 (< 0 (+ ?v_12 1 ix_2))) (not (= 0 (+ ?v_91 ?v_96))))) (or (or ?v_19 (< 0 (+ ?v_12 1 ix_1))) (not ?v_102))) (or (or ?v_22 ?v_98) (not (= 0 (+ ?v_91 ?v_68))))) (or (or ?v_24 (< 0 (+ ?v_12 1 i1))) (not (= 0 (+ ?v_91 ?v_99)))))) (and (and (<= 0 ix_3) (<= 0 (+ ?v_4 k (- 1)))) ?v_100)) (or (and (and (and (and (or ?v_70 (not ?v_100)) (or ?v_72 (not (= 0 (+ ?v_91 ?v_81))))) (or ?v_74 (not (= 0 (+ ?v_91 ?v_83))))) (or ?v_76 (not (= 0 (+ ?v_91 ?v_85))))) (or ?v_78 (not (= 0 (+ ?v_91 ?v_87))))) (or (and (and (<= 0 ix_2) (<= 0 (+ ?v_3 i1 (- 1)))) ?v_101) (and (and (<= 0 ix_1) (<= 0 (+ ?v_8 i2 (- 1)))) ?v_102))))))))))))))))))) ?v_103)))))) (< 0 (+ ?v_15 (- 1)))))))))))))))))))))
; --- Injected Array Sum Constraint ---
(assert (sum a1_0 (+ length1 (+ ix_3 ix_1))))
(assert (sum a2 (+ i2 (+ ix_2 length5))))
(assert (sum buf (+ e (+ i2 length1))))
(check-sat)
(exit)